Academic license - for non-commercial use only
Gurobi Optimizer version 9.0.3 build v9.0.3rc0 (mac64)
Optimize a model with 255286 rows, 240480 columns and 1381170 nonzeros
Model fingerprint: 0xcce397f6
Variable types: 0 continuous, 240480 integer (240480 binary)
Coefficient statistics:
  Matrix range     [1e+00, 1e+00]
  Objective range  [1e+01, 1e+05]
  Bounds range     [1e+00, 1e+00]
  RHS range        [1e+00, 1e+03]
Presolve added 0 rows and 5970 columns
Presolve removed 30 rows and 0 columns
Presolve time: 4.04s
Presolved: 255256 rows, 246450 columns, 1039110 nonzeros
Variable types: 0 continuous, 246450 integer (246450 binary)
Found heuristic solution: objective 835524.00000

Concurrent LP optimizer: dual simplex and barrier
Showing barrier log only...

Root barrier log...

Ordering time: 0.07s

Barrier statistics:
 Dense cols : 240
 AA' NZ     : 8.111e+05
 Factor NZ  : 3.235e+06 (roughly 230 MBytes of memory)
 Factor Ops : 4.332e+08 (less than 1 second per iteration)
 Threads    : 3

                  Objective                Residual
Iter       Primal          Dual         Primal    Dual     Compl     Time
   0   3.46000446e+08 -4.77500673e+08  3.97e+02 3.02e+01  3.11e+04    10s
   1   1.24707236e+07 -5.38623211e+08  2.68e+01 1.42e+04  2.09e+03    10s
   2   3.06628546e+06 -4.20000008e+08  4.99e+00 9.47e+03  8.02e+02    10s
   3   2.52578861e+06 -2.18597782e+08  3.73e+00 4.01e+03  4.23e+02    11s
   4   1.31890684e+06 -1.65222666e+08  9.04e-01 2.82e+03  2.52e+02    11s
   5   9.80064665e+05 -9.52899765e+07  8.64e-02 1.55e+03  1.33e+02    11s
   6   9.35888918e+05 -3.06118758e+06  1.12e-03 6.49e+01  5.45e+00    11s
   7   9.34917241e+05 -7.59225927e+05  1.02e-03 2.76e+01  2.31e+00    12s
   8   8.90982798e+05  6.20278647e+04  6.51e-04 1.12e+01  1.13e+00    12s
   9   8.61672208e+05  3.48269473e+05  5.19e-04 5.95e+00  6.98e-01    12s
  10   8.38054810e+05  5.39417070e+05  4.13e-04 2.70e+00  4.05e-01    12s
  11   8.28393830e+05  5.77736359e+05  3.84e-04 2.01e+00  3.40e-01    13s
  12   8.10906252e+05  6.22237308e+05  3.30e-04 1.22e+00  2.55e-01    13s
  13   7.91534144e+05  6.49015105e+05  2.81e-04 7.70e-01  1.93e-01    13s
  14   7.75122218e+05  6.65558974e+05  2.38e-04 4.90e-01  1.48e-01    14s
  15   7.65412786e+05  6.71749923e+05  2.09e-04 3.65e-01  1.27e-01    14s
  16   7.43509854e+05  6.77749167e+05  1.44e-04 2.56e-01  8.89e-02    14s
  17   7.31403601e+05  6.83176768e+05  1.12e-04 1.66e-01  6.52e-02    15s
  18   7.22012240e+05  6.86761086e+05  8.43e-05 1.08e-01  4.76e-02    15s
  19   7.14836210e+05  6.88773103e+05  6.40e-05 7.73e-02  3.52e-02    15s
  20   7.10349277e+05  6.90025898e+05  5.06e-05 5.98e-02  2.74e-02    16s
  21   7.07547594e+05  6.90797920e+05  4.22e-05 4.84e-02  2.26e-02    16s
  22   7.03993959e+05  6.91371626e+05  3.15e-05 3.99e-02  1.70e-02    16s
  23   7.02156748e+05  6.91974150e+05  2.60e-05 3.09e-02  1.38e-02    17s
  24   7.00527942e+05  6.92359298e+05  2.08e-05 2.55e-02  1.10e-02    17s
  25   6.99451466e+05  6.92913386e+05  1.73e-05 1.81e-02  8.83e-03    17s
  26   6.98592204e+05  6.93124878e+05  1.46e-05 1.50e-02  7.38e-03    18s
  27   6.98036550e+05  6.93287935e+05  1.29e-05 1.27e-02  6.41e-03    18s
  28   6.97481006e+05  6.93461046e+05  1.11e-05 1.05e-02  5.43e-03    18s
  29   6.96845496e+05  6.93570980e+05  9.06e-06 8.82e-03  4.42e-03    19s
  30   6.96466768e+05  6.93707272e+05  7.97e-06 7.09e-03  3.73e-03    19s
  31   6.96168145e+05  6.93821376e+05  6.89e-06 5.55e-03  3.17e-03    19s
  32   6.95822073e+05  6.93880729e+05  5.74e-06 4.68e-03  2.62e-03    20s
  33   6.95582897e+05  6.93974232e+05  4.86e-06 3.42e-03  2.17e-03    20s
  34   6.95404607e+05  6.94033587e+05  4.20e-06 2.60e-03  1.85e-03    20s
  35   6.95219572e+05  6.94049393e+05  3.59e-06 2.37e-03  1.58e-03    20s
  36   6.95151628e+05  6.94068756e+05  3.36e-06 2.13e-03  1.46e-03    21s
  37   6.94997167e+05  6.94094140e+05  2.82e-06 1.79e-03  1.22e-03    21s
  38   6.94945260e+05  6.94115024e+05  2.66e-06 1.56e-03  1.12e-03    21s
  39   6.94888952e+05  6.94127693e+05  2.46e-06 1.38e-03  1.03e-03    22s
  40   6.94744039e+05  6.94152046e+05  1.94e-06 1.04e-03  7.99e-04    22s
  41   6.94707870e+05  6.94169585e+05  1.80e-06 8.76e-04  7.26e-04    22s
  42   6.94635803e+05  6.94179350e+05  1.54e-06 7.18e-04  6.16e-04    23s
  43   6.94560286e+05  6.94185388e+05  1.26e-06 6.11e-04  5.06e-04    23s
  44   6.94475098e+05  6.94196563e+05  9.50e-07 4.51e-04  3.76e-04    23s
  45   6.94408911e+05  6.94203389e+05  7.09e-07 3.53e-04  2.77e-04    23s
  46   6.94372504e+05  6.94207257e+05  5.88e-07 2.99e-04  2.23e-04    24s
  47   6.94361892e+05  6.94212175e+05  5.50e-07 2.30e-04  2.02e-04    24s
  48   6.94336933e+05  6.94214574e+05  4.62e-07 1.97e-04  1.65e-04    24s
  49   6.94314686e+05  6.94216973e+05  3.72e-07 1.58e-04  1.32e-04    25s
  50   6.94293712e+05  6.94218971e+05  2.90e-07 1.27e-04  1.01e-04    25s
  51   6.94280466e+05  6.94221509e+05  2.31e-07 9.40e-05  7.96e-05    25s
  52   6.94272276e+05  6.94222847e+05  1.96e-07 7.41e-05  6.67e-05    25s
  53   6.94263521e+05  6.94224080e+05  1.56e-07 5.61e-05  5.32e-05    26s
  54   6.94257201e+05  6.94224850e+05  1.28e-07 4.53e-05  4.37e-05    26s
  55   6.94253037e+05  6.94225498e+05  1.10e-07 3.71e-05  3.72e-05    26s
  56   6.94250771e+05  6.94225971e+05  9.99e-08 3.11e-05  3.35e-05    27s
  57   6.94246358e+05  6.94226461e+05  8.16e-08 2.48e-05  2.68e-05    27s
  58   6.94241825e+05  6.94226907e+05  6.22e-08 1.92e-05  2.01e-05    27s
  59   6.94236394e+05  6.94227233e+05  3.64e-08 1.52e-05  1.24e-05    27s
  60   6.94232988e+05  6.94227837e+05  2.05e-08 7.18e-06  6.95e-06    28s
  61   6.94230683e+05  6.94228248e+05  9.72e-09 3.50e-06  3.29e-06    28s
  62   6.94229580e+05  6.94228521e+05  4.54e-09 9.68e-07  1.43e-06    28s
  63   6.94229342e+05  6.94228563e+05  3.37e-09 5.81e-07  1.05e-06    28s
  64   6.94228879e+05  6.94228615e+05  1.12e-09 2.92e-07  3.56e-07    29s
  65   6.94228656e+05  6.94228647e+05  5.28e-11 1.21e-08  1.21e-08    29s
  66   6.94228656e+05  6.94228647e+05  1.81e-08 1.71e-08  1.21e-08    29s
  67   6.94228656e+05  6.94228647e+05  2.13e-08 1.71e-08  1.21e-08    29s
  68   6.94228656e+05  6.94228647e+05  1.16e-08 5.85e-09  1.21e-08    30s

Barrier solved model in 68 iterations and 29.76 seconds
Optimal objective 6.94228656e+05


Root crossover log...

  112270 DPushes remaining with DInf 0.0000000e+00                30s
    2107 DPushes remaining with DInf 0.0000000e+00                30s
       0 DPushes remaining with DInf 0.0000000e+00                32s

    1177 PPushes remaining with PInf 0.0000000e+00                32s
       0 PPushes remaining with PInf 0.0000000e+00                33s

  Push phase complete: Pinf 0.0000000e+00, Dinf 8.7226226e-10     33s


Root simplex log...

Iteration    Objective       Primal Inf.    Dual Inf.      Time
   17828    6.9422865e+05   0.000000e+00   0.000000e+00     33s

Solved with barrier

Root relaxation: objective 6.942286e+05, 17828 iterations, 24.11 seconds
Total elapsed time = 35.23s

    Nodes    |    Current Node    |     Objective Bounds      |     Work
 Expl Unexpl |  Obj  Depth IntInf | Incumbent    BestBd   Gap | It/Node Time

     0     0 694228.649    0 19982 835524.000 694228.649  16.9%     -   35s
H    0     0                    712231.00000 694228.649  2.53%     -   38s
H    0     0                    709829.00000 694228.649  2.20%     -   53s
     0     0 694228.649    0 19982 709829.000 694228.649  2.20%     -  153s
H    0     2                    709653.00000 694228.649  2.17%     -  198s
     0     2 694228.649    0 19973 709653.000 694228.649  2.17%     -  198s
     1     4 694509.285    1 19557 709653.000 694228.863  2.17% 17567  284s

Explored 3 nodes (56330 simplex iterations) in 300.17 seconds
Thread count was 8 (of 8 available processors)

Solution count 4: 709653 709829 712231 835524 

Time limit reached
Best objective 7.096530000000e+05, best bound 6.945092947154e+05, gap 2.1340%

User-callback calls 28187, time in user-callback 0.20 sec
Solution written to /Users/mdeboute/Desktop/Etudes/Master/M2/S9/GOPP/Projet/multi-period-flp/solution/instMulti_I30_J1000_T8_0_result.txt
